c 52 AngularJS
c 12 Maven
c 10 Server
c 11 PostgreSQL
c 16 False
c 27 Consul
c 39 MessageBroker
c 34 SearchEngine
c 21 MySql
c 20 MySQL
c 23 EhCache
c 56 Client
c 4 AuthenticationType
c 14 ServerSideOption
c 60 LibSass
c 24 HibernateCache
c 3 JWT
c 18 HTTPSession
c 54 SwaggerCodegen
c 7 SQL
c 31 ApplicationType
c 28 Angular4
c 53 Uaa
c 50 Oracle12c
c 43 MicroserviceApplication
c 45 MongoDB
c 44 NoDB
c 29 ClientFrameWork
c 38 Application
c 35 MariaDBDev
c 19 Cucumber
c 37 NoHB
c 25 H2InMemory
c 1 Gatling
c 42 SocialLogIn
c 15 Cassandra
c 33 Oauth2
c 32 H2DiskBased
c 6 ProDataBaseType
c 59 ClusteredHttpSession
c 49 MsSQL
c 48 MsSql
c 5 Oracle
c 8 DataBaseType
c 47 jhipster
c 17 ServiceDiscoveryType
c 30 MicroserviceGateway
c 58 MariaDB
c 55 Monolithic
c 9 WebSocket
c 22 DevDataBaseType
c 40 HazelCast
c 2 TestFramework
c 13 BuildTool
c 51 UaaServer
c 46 Protractor
c 57 PostgreSQLDev
c 26 Gradle
c 36 Infinispan
c 41 Eureka
p cnf 61 666
-1 2 0
-3 4 0
-5 6 0
-7 8 0
-9 10 0
-11 6 0
-12 13 0
-13 14 0
-15 8 0
-16 17 0
-6 14 0
-12 13 0
-15 8 0
-8 14 0
-18 4 0
-19 2 0
-20 6 0
-21 22 0
-23 24 0
-7 8 0
-25 22 0
-20 6 0
-26 13 0
-27 17 0
-13 14 0
-27 17 0
-28 29 0
-30 31 0
-3 4 0
-12 13 0
-32 22 0
-33 4 0
-34 10 0
-12 13 0
-3 4 0
-33 4 0
-27 17 0
-35 22 0
-22 14 0
-36 24 0
-37 24 0
-12 13 0
-2 38 0
-3 4 0
-39 10 0
-40 24 0
-39 10 0
-16 17 0
-41 17 0
-15 8 0
-33 4 0
-16 17 0
-17 14 0
-42 10 0
-35 22 0
-43 31 0
-30 31 0
-28 29 0
-44 8 0
-13 14 0
-7 8 0
-37 24 0
-5 6 0
-21 22 0
-24 14 0
-40 24 0
-45 8 0
-32 22 0
-46 2 0
-10 47 0
-46 2 0
-48 22 0
-17 14 0
-12 13 0
-49 6 0
-16 17 0
-50 22 0
-35 22 0
-26 13 0
-28 29 0
-10 47 0
-51 31 0
-1 2 0
-8 14 0
-52 29 0
-53 4 0
-36 24 0
-46 2 0
-26 13 0
-26 13 0
-50 22 0
-35 22 0
-26 13 0
-5 6 0
-37 24 0
-20 6 0
-15 8 0
-53 4 0
-8 14 0
-51 31 0
-54 10 0
-36 24 0
-51 31 0
-42 10 0
-27 17 0
-7 8 0
-13 14 0
-26 13 0
-17 14 0
-36 24 0
-55 31 0
-37 24 0
-18 4 0
-15 8 0
-2 38 0
-3 4 0
-15 8 0
-1 2 0
-37 24 0
-29 56 0
-46 2 0
-1 2 0
-44 8 0
-18 4 0
-57 22 0
-44 8 0
-43 31 0
-16 17 0
-11 6 0
-36 24 0
-52 29 0
-34 10 0
-15 8 0
-15 8 0
-44 8 0
-7 8 0
-41 17 0
-45 8 0
-21 22 0
-43 31 0
-21 22 0
-18 4 0
-40 24 0
-39 10 0
-37 24 0
-40 24 0
-48 22 0
-17 14 0
-49 6 0
-36 24 0
-40 24 0
-22 14 0
-58 6 0
-1 2 0
-24 14 0
-7 8 0
-30 31 0
-37 24 0
-26 13 0
-5 6 0
-37 24 0
-26 13 0
-44 8 0
-18 4 0
-50 22 0
-27 17 0
-54 10 0
-14 10 0
-27 17 0
-7 8 0
-41 17 0
-53 4 0
-49 6 0
-22 14 0
-40 24 0
-35 22 0
-44 8 0
-14 10 0
-16 17 0
-42 10 0
-43 31 0
-36 24 0
-18 4 0
-40 24 0
-22 14 0
-15 8 0
-8 14 0
-17 14 0
-2 38 0
-41 17 0
-4 14 0
-16 17 0
-49 6 0
-16 17 0
-55 31 0
-45 8 0
-4 14 0
-55 31 0
-50 22 0
-35 22 0
-52 29 0
-33 4 0
-24 14 0
-11 6 0
-44 8 0
-48 22 0
-12 13 0
-23 24 0
-46 2 0
-40 24 0
-58 6 0
-52 29 0
-55 31 0
-18 4 0
-33 4 0
-40 24 0
-36 24 0
-21 22 0
-1 2 0
-59 10 0
-21 22 0
-53 4 0
-4 14 0
-40 24 0
-45 8 0
-27 17 0
-50 22 0
-32 22 0
-34 10 0
-36 24 0
-19 2 0
-23 24 0
-41 17 0
-25 22 0
-6 14 0
-60 56 0
-44 8 0
-32 22 0
-12 13 0
-3 4 0
-22 14 0
-53 4 0
-53 4 0
-53 4 0
-37 24 0
-27 17 0
-9 10 0
-41 17 0
-32 22 0
-11 6 0
-12 13 0
-19 2 0
-44 8 0
-53 4 0
-18 4 0
-42 10 0
-11 6 0
-20 6 0
-3 4 0
-57 22 0
-31 38 0
-28 29 0
-33 4 0
-46 2 0
-7 8 0
-27 17 0
-12 13 0
-16 17 0
-30 31 0
-24 14 0
-48 22 0
-13 14 0
-23 24 0
-27 17 0
-36 24 0
-57 22 0
-24 14 0
-53 4 0
-11 6 0
-18 4 0
-57 22 0
-41 17 0
-40 24 0
-16 17 0
-29 56 0
-40 24 0
-37 24 0
-6 14 0
-55 31 0
-33 4 0
-15 8 0
-23 24 0
-36 24 0
-43 31 0
-33 4 0
-18 4 0
-15 8 0
-7 8 0
-40 24 0
-51 31 0
-14 10 0
-53 4 0
-7 8 0
-26 13 0
-20 6 0
-58 6 0
-54 10 0
-12 13 0
-58 6 0
-26 13 0
-26 13 0
-4 14 0
-27 17 0
-59 10 0
-41 17 0
-55 31 0
-33 4 0
-7 8 0
-32 22 0
-49 6 0
-3 4 0
-23 24 0
-18 4 0
-11 6 0
-6 14 0
-20 6 0
-7 8 0
-48 22 0
-7 8 0
-5 6 0
-41 17 0
-46 2 0
-43 31 0
-41 17 0
-3 4 0
-51 31 0
-41 17 0
-16 17 0
-23 24 0
-13 14 0
-36 24 0
-45 8 0
-13 14 0
-48 22 0
-49 6 0
-37 24 0
-3 4 0
-18 4 0
-20 6 0
-33 4 0
-17 14 0
-53 4 0
-25 22 0
-7 8 0
-55 31 0
-45 8 0
-27 17 0
-14 10 0
-5 6 0
-6 14 0
-55 31 0
-60 56 0
-37 24 0
-12 13 0
-6 14 0
-23 24 0
-12 13 0
-41 17 0
-4 14 0
-49 6 0
-8 14 0
-23 24 0
-53 4 0
-31 38 0
-46 2 0
-5 6 0
-25 22 0
-37 24 0
-27 17 0
-4 14 0
-26 13 0
-54 10 0
-25 22 0
-33 4 0
-16 17 0
-44 8 0
-15 8 0
-17 14 0
-1 2 0
-50 22 0
-24 14 0
-45 8 0
-30 31 0
-19 2 0
-15 8 0
-15 8 0
-15 8 0
-30 31 0
-41 17 0
-34 10 0
-8 14 0
-37 24 0
-26 13 0
-33 4 0
-19 2 0
-44 8 0
-45 8 0
-23 24 0
-44 8 0
-44 8 0
-23 24 0
-41 17 0
-5 6 0
-9 10 0
-25 22 0
-3 4 0
-35 22 0
-22 14 0
-37 24 0
-44 8 0
-36 24 0
-38 47 0
-43 31 0
-8 14 0
-45 8 0
-16 17 0
-17 14 0
-48 22 0
-36 24 0
-12 13 0
-36 24 0
-12 13 0
-45 8 0
-7 8 0
-18 4 0
-7 8 0
-31 38 0
-41 17 0
-19 2 0
-3 4 0
-53 4 0
-6 14 0
-23 24 0
-27 17 0
-51 31 0
-57 22 0
-57 22 0
-23 24 0
-40 24 0
-9 10 0
-16 17 0
-50 22 0
-21 22 0
-31 38 0
-30 31 0
-13 14 0
-26 13 0
-15 8 0
-1 2 0
-27 17 0
-23 24 0
-33 4 0
-41 17 0
-2 38 0
-23 24 0
-24 14 0
-45 8 0
-3 4 0
-21 22 0
-16 17 0
-6 14 0
-25 22 0
-16 17 0
-30 31 0
-22 14 0
-18 4 0
-12 13 0
-39 10 0
-19 2 0
-59 10 0
-33 4 0
-3 4 0
-45 8 0
-37 24 0
-3 4 0
-58 6 0
-25 22 0
-58 6 0
-40 24 0
-51 31 0
-4 14 0
-35 22 0
-3 4 0
-11 6 0
-57 22 0
-38 47 0
-40 24 0
-26 13 0
-50 22 0
-22 14 0
-58 6 0
-49 6 0
-4 14 0
-18 4 0
-26 13 0
-20 6 0
-8 14 0
-53 4 0
-43 31 0
-32 22 0
-51 31 0
-56 47 0
-44 8 0
-44 8 0
-56 47 0
-45 8 0
-45 8 0
-45 8 0
-32 22 0
-57 22 0
-24 14 0
-27 17 0
-45 8 0
-53 4 0
-36 24 0
-58 6 0
-19 2 0
-53 4 0
-48 22 0
-33 4 0
-23 24 0
-33 4 0
-18 4 0
-59 10 0
47 0
-22 50 25 57 35 48 21 32 0
-57 -48 0
-35 -21 0
-35 -32 0
-25 -48 0
-50 -25 0
-50 -32 0
-57 -35 0
-25 -35 0
-57 -32 0
-35 -48 0
-50 -35 0
-25 -57 0
-50 -48 0
-50 -21 0
-25 -32 0
-57 -21 0
-50 -57 0
-21 -32 0
-25 -21 0
-48 -21 0
-48 -32 0
-17 27 41 16 0
-27 -16 0
-27 -41 0
-41 -16 0
-14 17 0
-14 4 0
-4 18 53 33 3 0
-18 -33 0
-18 -3 0
-53 -3 0
-53 -33 0
-33 -3 0
-18 -53 0
-14 8 0
-14 13 0
-29 52 28 0
-52 -28 0
-8 7 44 15 45 0
-7 -44 0
-44 -15 0
-15 -45 0
-7 -15 0
-44 -45 0
-7 -45 0
-47 38 0
-47 10 0
-10 14 0
-38 2 0
-6 20 49 5 58 11 0
-20 -49 0
-49 -58 0
-49 -11 0
-20 -58 0
-5 -11 0
-49 -5 0
-58 -11 0
-5 -58 0
-20 -11 0
-20 -5 0
-24 36 37 40 23 0
-36 -23 0
-40 -23 0
-37 -23 0
-37 -40 0
-36 -37 0
-36 -40 0
-56 29 0
-14 24 0
61 47 0
-31 30 55 43 51 0
-30 -55 0
-30 -51 0
-55 -51 0
-30 -43 0
-43 -51 0
-55 -43 0
-38 31 0
-13 26 12 0
-26 -12 0
-5 0
-7 -5 32 25 50 0
-55 -53 0
-7 -20 32 25 21 0
-45 30 37 0
-15 30 37 0
-44 37 0
-50 0
-51 53 0
43 53 -44 0
43 30 -44 0
-55 16 41 0
7 -34 0
-7 -49 32 25 48 0
-7 -58 32 25 35 0
-30 40 0
-7 6 0
-33 7 45 0
-43 -56 0
-43 19 0
-43 1 0
-43 -46 0
-51 -56 0
-51 19 0
-51 1 0
-51 -46 0
-7 -11 32 25 57 0
-15 -42 0
55 -42 0
18 3 -42 0
-30 3 53 0
-43 3 53 0
-45 -22 0
-45 -6 0
-15 -22 0
-15 -6 0
-44 -22 0
-44 -6 0
55 30 -59 0
37 40 -59 0
-41 53 3 0
-55 56 0
-55 19 0
-55 46 0
-55 1 0
-30 56 0
-30 19 0
-30 46 0
-30 1 0
55 30 -9 0
